NAME: random problem
TYPE: MTSP
COMMENT: MTSP problem for MRS UAV summer school
DIMENSION: 20
NUMBER_OF_ROBOTS: 2
START_TARGET_INDEXES: 1, 2
NEIGHBORHOOD_RADIUS: 2
EDGE_WEIGHT_TYPE: EUC_2D
NODE_COORD_SECTION
1 15.0 -21.0
2 -5.0 -25.0
3 -6.2 7.2
4 -13.9 3.4
5 16.4 9.3
6 -34.2 -14.7
7 -15.4 -20.0
8 15.3 -1.3
9 34.9 -19.4
10 4.8 -16.8
11 -37.7 5.5
12 -36.1 1.8
13 16.7 -20.5
14 -33.6 -22.4
15 27.4 -23.1
16 -9.7 -24.7
17 -3.4 -5.4
18 -14.5 -21.6
19 4.0 -17.8
20 -14.0 -16.4
EOF
